c FILE: n200d20/random-n200-d20-7.col

p edge 200 3980
e 1 5
e 1 10
e 1 24
e 1 27
e 1 29
e 1 33
e 1 36
e 1 40
e 1 42
e 1 43
e 1 51
e 1 56
e 1 59
e 1 63
e 1 65
e 1 69
e 1 76
e 1 86
e 1 94
e 1 102
e 1 105
e 1 109
e 1 110
e 1 113
e 1 125
e 1 130
e 1 136
e 1 137
e 1 138
e 1 146
e 1 150
e 1 162
e 1 167
e 1 169
e 1 170
e 1 199
e 1 200
e 2 6
e 2 9
e 2 10
e 2 11
e 2 26
e 2 31
e 2 35
e 2 44
e 2 47
e 2 48
e 2 49
e 2 51
e 2 57
e 2 59
e 2 61
e 2 63
e 2 66
e 2 70
e 2 76
e 2 82
e 2 85
e 2 86
e 2 102
e 2 109
e 2 111
e 2 116
e 2 124
e 2 127
e 2 128
e 2 130
e 2 131
e 2 134
e 2 137
e 2 138
e 2 158
e 2 164
e 2 179
e 2 182
e 2 187
e 2 195
e 3 6
e 3 7
e 3 20
e 3 22
e 3 24
e 3 31
e 3 32
e 3 33
e 3 39
e 3 46
e 3 62
e 3 78
e 3 83
e 3 89
e 3 90
e 3 105
e 3 107
e 3 116
e 3 127
e 3 129
e 3 145
e 3 150
e 3 152
e 3 154
e 3 163
e 3 169
e 3 178
e 3 179
e 3 180
e 3 184
e 3 190
e 3 191
e 3 200
e 4 8
e 4 19
e 4 32
e 4 37
e 4 46
e 4 52
e 4 54
e 4 57
e 4 59
e 4 61
e 4 62
e 4 64
e 4 68
e 4 69
e 4 73
e 4 76
e 4 88
e 4 101
e 4 103
e 4 104
e 4 105
e 4 109
e 4 113
e 4 118
e 4 120
e 4 122
e 4 130
e 4 142
e 4 160
e 4 166
e 4 170
e 4 179
e 4 183
e 4 185
e 4 194
e 4 196
e 4 197
e 4 198
e 5 8
e 5 9
e 5 15
e 5 19
e 5 32
e 5 36
e 5 39
e 5 48
e 5 50
e 5 51
e 5 73
e 5 80
e 5 85
e 5 95
e 5 96
e 5 99
e 5 111
e 5 114
e 5 120
e 5 121
e 5 134
e 5 135
e 5 137
e 5 138
e 5 139
e 5 156
e 5 161
e 5 165
e 5 168
e 5 174
e 5 176
e 5 178
e 5 179
e 5 198
e 6 7
e 6 14
e 6 15
e 6 18
e 6 22
e 6 23
e 6 31
e 6 36
e 6 38
e 6 44
e 6 46
e 6 56
e 6 60
e 6 65
e 6 66
e 6 70
e 6 74
e 6 78
e 6 83
e 6 90
e 6 94
e 6 99
e 6 104
e 6 111
e 6 114
e 6 117
e 6 121
e 6 125
e 6 128
e 6 136
e 6 141
e 6 152
e 6 153
e 6 156
e 6 157
e 6 179
e 6 181
e 6 182
e 6 185
e 6 186
e 6 191
e 6 192
e 6 194
e 6 197
e 7 13
e 7 16
e 7 21
e 7 26
e 7 29
e 7 32
e 7 33
e 7 34
e 7 39
e 7 45
e 7 52
e 7 56
e 7 57
e 7 59
e 7 60
e 7 63
e 7 82
e 7 86
e 7 87
e 7 92
e 7 93
e 7 95
e 7 99
e 7 103
e 7 109
e 7 113
e 7 119
e 7 129
e 7 130
e 7 131
e 7 134
e 7 138
e 7 139
e 7 147
e 7 149
e 7 151
e 7 153
e 7 156
e 7 157
e 7 162
e 7 164
e 7 171
e 7 187
e 7 194
e 7 195
e 8 21
e 8 28
e 8 32
e 8 39
e 8 40
e 8 46
e 8 49
e 8 62
e 8 64
e 8 66
e 8 69
e 8 86
e 8 91
e 8 92
e 8 93
e 8 95
e 8 96
e 8 97
e 8 98
e 8 99
e 8 112
e 8 115
e 8 117
e 8 122
e 8 129
e 8 137
e 8 141
e 8 143
e 8 144
e 8 148
e 8 153
e 8 158
e 8 167
e 8 170
e 8 172
e 8 176
e 8 179
e 8 186
e 9 12
e 9 14
e 9 18
e 9 20
e 9 21
e 9 23
e 9 28
e 9 33
e 9 39
e 9 59
e 9 67
e 9 70
e 9 81
e 9 82
e 9 87
e 9 90
e 9 91
e 9 97
e 9 99
e 9 101
e 9 102
e 9 106
e 9 107
e 9 116
e 9 123
e 9 129
e 9 132
e 9 136
e 9 139
e 9 140
e 9 141
e 9 156
e 9 159
e 9 160
e 9 163
e 9 166
e 9 167
e 9 168
e 9 178
e 9 185
e 10 15
e 10 17
e 10 28
e 10 29
e 10 31
e 10 34
e 10 35
e 10 44
e 10 46
e 10 48
e 10 51
e 10 54
e 10 63
e 10 65
e 10 69
e 10 92
e 10 106
e 10 108
e 10 109
e 10 113
e 10 115
e 10 116
e 10 127
e 10 138
e 10 151
e 10 152
e 10 155
e 10 167
e 10 169
e 10 171
e 10 178
e 10 188
e 11 19
e 11 22
e 11 35
e 11 36
e 11 38
e 11 44
e 11 50
e 11 52
e 11 57
e 11 58
e 11 69
e 11 77
e 11 79
e 11 80
e 11 82
e 11 87
e 11 100
e 11 105
e 11 106
e 11 112
e 11 125
e 11 126
e 11 127
e 11 144
e 11 157
e 11 162
e 11 163
e 11 165
e 11 169
e 11 171
e 11 172
e 11 175
e 11 181
e 11 187
e 11 188
e 11 189
e 11 190
e 11 191
e 12 20
e 12 24
e 12 28
e 12 30
e 12 31
e 12 51
e 12 52
e 12 55
e 12 58
e 12 66
e 12 68
e 12 70
e 12 79
e 12 83
e 12 87
e 12 90
e 12 91
e 12 111
e 12 115
e 12 117
e 12 123
e 12 124
e 12 132
e 12 138
e 12 139
e 12 141
e 12 142
e 12 143
e 12 145
e 12 151
e 12 157
e 12 165
e 12 170
e 12 175
e 12 177
e 12 184
e 12 187
e 12 191
e 12 196
e 12 199
e 13 19
e 13 20
e 13 56
e 13 61
e 13 62
e 13 64
e 13 70
e 13 71
e 13 72
e 13 78
e 13 84
e 13 87
e 13 99
e 13 109
e 13 113
e 13 114
e 13 115
e 13 122
e 13 123
e 13 126
e 13 133
e 13 138
e 13 142
e 13 151
e 13 152
e 13 153
e 13 160
e 13 165
e 13 169
e 13 178
e 13 179
e 13 181
e 13 184
e 13 188
e 13 192
e 13 195
e 14 17
e 14 20
e 14 28
e 14 40
e 14 41
e 14 42
e 14 45
e 14 59
e 14 61
e 14 65
e 14 67
e 14 74
e 14 80
e 14 89
e 14 100
e 14 104
e 14 106
e 14 108
e 14 121
e 14 127
e 14 128
e 14 132
e 14 134
e 14 137
e 14 139
e 14 140
e 14 145
e 14 150
e 14 151
e 14 155
e 14 157
e 14 160
e 14 167
e 14 173
e 14 182
e 14 185
e 14 189
e 14 191
e 14 195
e 14 196
e 15 18
e 15 22
e 15 33
e 15 35
e 15 44
e 15 52
e 15 56
e 15 57
e 15 64
e 15 67
e 15 69
e 15 81
e 15 86
e 15 93
e 15 97
e 15 102
e 15 107
e 15 108
e 15 109
e 15 123
e 15 124
e 15 128
e 15 131
e 15 145
e 15 146
e 15 156
e 15 162
e 15 166
e 15 182
e 15 190
e 15 192
e 15 198
e 16 19
e 16 32
e 16 33
e 16 48
e 16 49
e 16 55
e 16 60
e 16 64
e 16 68
e 16 70
e 16 77
e 16 81
e 16 84
e 16 99
e 16 105
e 16 117
e 16 119
e 16 129
e 16 132
e 16 136
e 16 137
e 16 152
e 16 156
e 16 159
e 16 160
e 16 164
e 16 167
e 16 169
e 16 174
e 16 177
e 16 182
e 16 183
e 16 193
e 16 195
e 16 196
e 16 199
e 17 20
e 17 27
e 17 31
e 17 33
e 17 34
e 17 39
e 17 47
e 17 52
e 17 55
e 17 77
e 17 85
e 17 100
e 17 102
e 17 105
e 17 106
e 17 109
e 17 112
e 17 113
e 17 114
e 17 134
e 17 138
e 17 144
e 17 145
e 17 156
e 17 163
e 17 165
e 17 167
e 17 169
e 17 173
e 17 175
e 17 180
e 17 185
e 17 186
e 17 190
e 17 197
e 17 199
e 18 23
e 18 24
e 18 27
e 18 28
e 18 33
e 18 37
e 18 39
e 18 49
e 18 52
e 18 56
e 18 67
e 18 71
e 18 72
e 18 78
e 18 79
e 18 82
e 18 88
e 18 89
e 18 99
e 18 101
e 18 104
e 18 105
e 18 106
e 18 107
e 18 109
e 18 111
e 18 113
e 18 117
e 18 118
e 18 121
e 18 124
e 18 126
e 18 128
e 18 129
e 18 131
e 18 135
e 18 136
e 18 138
e 18 149
e 18 162
e 18 174
e 18 176
e 18 189
e 18 193
e 18 194
e 19 20
e 19 39
e 19 40
e 19 42
e 19 47
e 19 49
e 19 54
e 19 55
e 19 57
e 19 58
e 19 68
e 19 80
e 19 92
e 19 93
e 19 95
e 19 97
e 19 104
e 19 106
e 19 112
e 19 116
e 19 121
e 19 127
e 19 134
e 19 137
e 19 140
e 19 141
e 19 145
e 19 148
e 19 151
e 19 153
e 19 157
e 19 158
e 19 159
e 19 161
e 19 164
e 19 172
e 19 176
e 19 188
e 19 191
e 19 197
e 20 27
e 20 31
e 20 34
e 20 39
e 20 54
e 20 55
e 20 56
e 20 58
e 20 61
e 20 72
e 20 75
e 20 76
e 20 87
e 20 92
e 20 94
e 20 95
e 20 103
e 20 111
e 20 116
e 20 117
e 20 121
e 20 124
e 20 125
e 20 127
e 20 134
e 20 138
e 20 148
e 20 151
e 20 155
e 20 169
e 20 174
e 20 183
e 20 187
e 20 189
e 20 191
e 20 197
e 21 22
e 21 24
e 21 25
e 21 26
e 21 28
e 21 53
e 21 54
e 21 60
e 21 70
e 21 74
e 21 78
e 21 79
e 21 81
e 21 85
e 21 86
e 21 97
e 21 113
e 21 118
e 21 122
e 21 123
e 21 127
e 21 131
e 21 133
e 21 137
e 21 138
e 21 139
e 21 154
e 21 165
e 21 171
e 21 174
e 21 176
e 21 178
e 21 188
e 21 197
e 21 198
e 22 27
e 22 32
e 22 35
e 22 59
e 22 65
e 22 70
e 22 71
e 22 73
e 22 84
e 22 85
e 22 86
e 22 87
e 22 97
e 22 102
e 22 111
e 22 113
e 22 126
e 22 127
e 22 129
e 22 131
e 22 134
e 22 145
e 22 146
e 22 148
e 22 152
e 22 153
e 22 158
e 22 162
e 22 164
e 22 179
e 22 181
e 22 190
e 22 191
e 22 195
e 22 196
e 22 197
e 23 25
e 23 26
e 23 29
e 23 31
e 23 33
e 23 34
e 23 38
e 23 40
e 23 47
e 23 51
e 23 55
e 23 57
e 23 59
e 23 65
e 23 70
e 23 77
e 23 80
e 23 85
e 23 87
e 23 89
e 23 95
e 23 103
e 23 107
e 23 115
e 23 120
e 23 123
e 23 132
e 23 133
e 23 135
e 23 142
e 23 144
e 23 153
e 23 154
e 23 158
e 23 161
e 23 167
e 23 181
e 23 185
e 23 186
e 23 190
e 23 194
e 23 195
e 24 28
e 24 29
e 24 38
e 24 41
e 24 60
e 24 64
e 24 67
e 24 74
e 24 82
e 24 92
e 24 94
e 24 98
e 24 101
e 24 103
e 24 110
e 24 127
e 24 130
e 24 140
e 24 141
e 24 144
e 24 151
e 24 152
e 24 158
e 24 162
e 24 168
e 24 170
e 24 172
e 24 174
e 24 178
e 24 183
e 24 197
e 25 27
e 25 32
e 25 36
e 25 45
e 25 58
e 25 60
e 25 62
e 25 66
e 25 71
e 25 86
e 25 91
e 25 95
e 25 97
e 25 103
e 25 105
e 25 107
e 25 111
e 25 113
e 25 116
e 25 117
e 25 121
e 25 127
e 25 136
e 25 138
e 25 144
e 25 146
e 25 152
e 25 163
e 25 167
e 25 169
e 25 171
e 25 175
e 25 177
e 25 178
e 25 182
e 25 193
e 26 32
e 26 33
e 26 35
e 26 43
e 26 54
e 26 61
e 26 62
e 26 76
e 26 81
e 26 82
e 26 84
e 26 88
e 26 92
e 26 94
e 26 98
e 26 99
e 26 107
e 26 111
e 26 113
e 26 114
e 26 115
e 26 117
e 26 121
e 26 126
e 26 136
e 26 138
e 26 143
e 26 153
e 26 154
e 26 156
e 26 166
e 26 169
e 26 172
e 26 175
e 26 179
e 26 197
e 27 28
e 27 31
e 27 36
e 27 38
e 27 41
e 27 44
e 27 51
e 27 61
e 27 62
e 27 67
e 27 71
e 27 75
e 27 80
e 27 85
e 27 91
e 27 93
e 27 94
e 27 102
e 27 106
e 27 107
e 27 109
e 27 110
e 27 112
e 27 117
e 27 127
e 27 142
e 27 147
e 27 151
e 27 153
e 27 155
e 27 158
e 27 162
e 27 163
e 27 164
e 27 177
e 27 191
e 27 194
e 28 29
e 28 32
e 28 54
e 28 62
e 28 64
e 28 73
e 28 85
e 28 93
e 28 98
e 28 99
e 28 104
e 28 107
e 28 112
e 28 113
e 28 118
e 28 122
e 28 124
e 28 125
e 28 128
e 28 130
e 28 133
e 28 137
e 28 153
e 28 158
e 28 159
e 28 162
e 28 170
e 28 172
e 28 178
e 28 185
e 28 193
e 29 36
e 29 37
e 29 39
e 29 41
e 29 43
e 29 49
e 29 67
e 29 68
e 29 70
e 29 81
e 29 85
e 29 86
e 29 97
e 29 103
e 29 105
e 29 107
e 29 119
e 29 121
e 29 123
e 29 129
e 29 132
e 29 133
e 29 134
e 29 135
e 29 143
e 29 146
e 29 154
e 29 161
e 29 165
e 29 186
e 29 189
e 30 35
e 30 40
e 30 43
e 30 48
e 30 52
e 30 68
e 30 76
e 30 83
e 30 93
e 30 95
e 30 97
e 30 98
e 30 103
e 30 106
e 30 107
e 30 112
e 30 116
e 30 119
e 30 121
e 30 129
e 30 134
e 30 138
e 30 146
e 30 148
e 30 150
e 30 151
e 30 155
e 30 156
e 30 165
e 30 170
e 30 177
e 30 183
e 30 188
e 30 197
e 30 198
e 31 32
e 31 34
e 31 36
e 31 37
e 31 38
e 31 43
e 31 45
e 31 50
e 31 52
e 31 59
e 31 63
e 31 64
e 31 68
e 31 70
e 31 74
e 31 82
e 31 84
e 31 85
e 31 89
e 31 90
e 31 100
e 31 102
e 31 119
e 31 137
e 31 140
e 31 142
e 31 145
e 31 147
e 31 148
e 31 149
e 31 151
e 31 154
e 31 167
e 31 169
e 31 174
e 31 175
e 31 199
e 32 34
e 32 38
e 32 39
e 32 41
e 32 47
e 32 52
e 32 59
e 32 60
e 32 71
e 32 73
e 32 75
e 32 79
e 32 87
e 32 91
e 32 93
e 32 106
e 32 107
e 32 110
e 32 111
e 32 113
e 32 118
e 32 124
e 32 125
e 32 133
e 32 135
e 32 136
e 32 137
e 32 139
e 32 150
e 32 161
e 32 165
e 32 168
e 32 169
e 32 172
e 32 173
e 32 174
e 32 184
e 32 191
e 32 195
e 33 40
e 33 47
e 33 49
e 33 53
e 33 54
e 33 65
e 33 73
e 33 78
e 33 81
e 33 84
e 33 91
e 33 92
e 33 97
e 33 108
e 33 115
e 33 119
e 33 129
e 33 131
e 33 135
e 33 147
e 33 149
e 33 152
e 33 155
e 33 157
e 33 160
e 33 169
e 33 172
e 33 173
e 33 174
e 33 177
e 33 180
e 33 193
e 33 194
e 34 35
e 34 38
e 34 39
e 34 42
e 34 49
e 34 52
e 34 56
e 34 59
e 34 64
e 34 68
e 34 74
e 34 77
e 34 82
e 34 89
e 34 97
e 34 100
e 34 103
e 34 105
e 34 106
e 34 121
e 34 124
e 34 139
e 34 144
e 34 149
e 34 153
e 34 158
e 34 162
e 34 166
e 34 170
e 34 174
e 34 176
e 34 187
e 34 189
e 34 193
e 34 194
e 34 200
e 35 47
e 35 50
e 35 54
e 35 55
e 35 57
e 35 59
e 35 60
e 35 65
e 35 71
e 35 75
e 35 85
e 35 92
e 35 103
e 35 110
e 35 124
e 35 126
e 35 135
e 35 138
e 35 139
e 35 140
e 35 141
e 35 145
e 35 150
e 35 156
e 35 162
e 35 169
e 35 172
e 35 176
e 35 185
e 35 189
e 35 198
e 36 38
e 36 39
e 36 43
e 36 47
e 36 56
e 36 57
e 36 62
e 36 68
e 36 78
e 36 84
e 36 86
e 36 89
e 36 98
e 36 101
e 36 102
e 36 103
e 36 111
e 36 114
e 36 119
e 36 121
e 36 122
e 36 142
e 36 150
e 36 151
e 36 152
e 36 162
e 36 184
e 36 187
e 36 194
e 36 196
e 37 40
e 37 50
e 37 56
e 37 59
e 37 60
e 37 62
e 37 64
e 37 68
e 37 70
e 37 76
e 37 84
e 37 92
e 37 93
e 37 94
e 37 104
e 37 106
e 37 107
e 37 108
e 37 119
e 37 120
e 37 123
e 37 136
e 37 138
e 37 141
e 37 142
e 37 146
e 37 149
e 37 152
e 37 155
e 37 160
e 37 179
e 37 182
e 37 183
e 37 188
e 37 192
e 37 196
e 38 44
e 38 48
e 38 49
e 38 55
e 38 61
e 38 67
e 38 75
e 38 76
e 38 82
e 38 88
e 38 92
e 38 93
e 38 106
e 38 117
e 38 124
e 38 125
e 38 128
e 38 131
e 38 142
e 38 148
e 38 152
e 38 163
e 38 169
e 38 173
e 38 183
e 38 184
e 38 185
e 38 188
e 38 189
e 38 196
e 39 40
e 39 41
e 39 43
e 39 46
e 39 50
e 39 51
e 39 55
e 39 57
e 39 67
e 39 68
e 39 82
e 39 84
e 39 86
e 39 87
e 39 91
e 39 104
e 39 110
e 39 118
e 39 121
e 39 125
e 39 135
e 39 142
e 39 146
e 39 147
e 39 153
e 39 159
e 39 166
e 39 172
e 39 176
e 39 181
e 39 182
e 39 188
e 39 191
e 39 196
e 40 41
e 40 46
e 40 48
e 40 52
e 40 56
e 40 57
e 40 78
e 40 83
e 40 91
e 40 95
e 40 97
e 40 99
e 40 107
e 40 111
e 40 121
e 40 122
e 40 123
e 40 124
e 40 127
e 40 128
e 40 129
e 40 131
e 40 132
e 40 133
e 40 136
e 40 139
e 40 144
e 40 147
e 40 150
e 40 153
e 40 157
e 40 165
e 40 176
e 40 180
e 40 184
e 40 187
e 40 194
e 41 42
e 41 50
e 41 62
e 41 64
e 41 87
e 41 88
e 41 95
e 41 96
e 41 100
e 41 105
e 41 110
e 41 111
e 41 113
e 41 118
e 41 119
e 41 121
e 41 126
e 41 134
e 41 136
e 41 137
e 41 139
e 41 146
e 41 148
e 41 151
e 41 152
e 41 162
e 41 163
e 41 166
e 41 178
e 41 180
e 41 196
e 42 50
e 42 52
e 42 55
e 42 61
e 42 62
e 42 69
e 42 72
e 42 83
e 42 84
e 42 87
e 42 89
e 42 93
e 42 96
e 42 99
e 42 122
e 42 132
e 42 134
e 42 135
e 42 136
e 42 141
e 42 143
e 42 150
e 42 159
e 42 164
e 42 165
e 42 195
e 42 199
e 43 49
e 43 51
e 43 57
e 43 64
e 43 73
e 43 91
e 43 113
e 43 124
e 43 128
e 43 149
e 43 150
e 43 158
e 43 162
e 43 171
e 43 177
e 43 183
e 43 191
e 43 198
e 44 45
e 44 51
e 44 56
e 44 58
e 44 71
e 44 73
e 44 79
e 44 83
e 44 84
e 44 87
e 44 90
e 44 94
e 44 101
e 44 104
e 44 109
e 44 111
e 44 114
e 44 116
e 44 127
e 44 130
e 44 140
e 44 141
e 44 151
e 44 161
e 44 164
e 44 166
e 44 173
e 44 174
e 44 178
e 44 193
e 44 194
e 44 195
e 44 198
e 45 47
e 45 49
e 45 52
e 45 55
e 45 75
e 45 77
e 45 79
e 45 83
e 45 91
e 45 97
e 45 106
e 45 126
e 45 131
e 45 132
e 45 138
e 45 148
e 45 149
e 45 156
e 45 159
e 45 163
e 45 175
e 45 177
e 45 188
e 45 189
e 45 192
e 45 195
e 45 199
e 46 47
e 46 60
e 46 62
e 46 63
e 46 76
e 46 78
e 46 92
e 46 94
e 46 98
e 46 103
e 46 110
e 46 118
e 46 120
e 46 121
e 46 122
e 46 126
e 46 130
e 46 132
e 46 134
e 46 136
e 46 137
e 46 140
e 46 145
e 46 149
e 46 155
e 46 156
e 46 159
e 46 175
e 46 179
e 46 181
e 46 182
e 46 183
e 46 187
e 46 188
e 46 191
e 46 197
e 46 200
e 47 60
e 47 68
e 47 79
e 47 98
e 47 99
e 47 102
e 47 107
e 47 110
e 47 111
e 47 112
e 47 118
e 47 121
e 47 122
e 47 126
e 47 137
e 47 138
e 47 140
e 47 141
e 47 142
e 47 147
e 47 151
e 47 181
e 47 194
e 48 60
e 48 64
e 48 67
e 48 71
e 48 79
e 48 81
e 48 82
e 48 83
e 48 88
e 48 89
e 48 91
e 48 93
e 48 103
e 48 104
e 48 107
e 48 108
e 48 110
e 48 112
e 48 119
e 48 121
e 48 126
e 48 127
e 48 128
e 48 133
e 48 137
e 48 146
e 48 147
e 48 149
e 48 157
e 48 165
e 48 167
e 48 169
e 48 179
e 48 181
e 48 182
e 48 194
e 48 197
e 48 198
e 48 200
e 49 53
e 49 54
e 49 58
e 49 60
e 49 75
e 49 83
e 49 85
e 49 98
e 49 103
e 49 105
e 49 113
e 49 120
e 49 121
e 49 127
e 49 129
e 49 139
e 49 141
e 49 149
e 49 152
e 49 158
e 49 159
e 49 161
e 49 163
e 49 182
e 49 187
e 49 189
e 50 51
e 50 57
e 50 64
e 50 69
e 50 72
e 50 73
e 50 74
e 50 75
e 50 79
e 50 81
e 50 90
e 50 95
e 50 99
e 50 101
e 50 102
e 50 107
e 50 108
e 50 114
e 50 130
e 50 132
e 50 133
e 50 137
e 50 138
e 50 144
e 50 146
e 50 163
e 50 172
e 50 175
e 50 181
e 50 189
e 50 193
e 51 58
e 51 63
e 51 64
e 51 65
e 51 67
e 51 69
e 51 80
e 51 82
e 51 89
e 51 90
e 51 91
e 51 93
e 51 94
e 51 99
e 51 101
e 51 122
e 51 126
e 51 140
e 51 142
e 51 145
e 51 146
e 51 151
e 51 152
e 51 155
e 51 159
e 51 167
e 51 175
e 51 181
e 51 191
e 51 193
e 51 200
e 52 55
e 52 61
e 52 64
e 52 69
e 52 73
e 52 77
e 52 80
e 52 82
e 52 88
e 52 89
e 52 101
e 52 102
e 52 103
e 52 108
e 52 110
e 52 124
e 52 130
e 52 144
e 52 145
e 52 154
e 52 158
e 52 178
e 52 185
e 52 190
e 52 191
e 52 195
e 53 55
e 53 57
e 53 58
e 53 59
e 53 70
e 53 71
e 53 74
e 53 77
e 53 83
e 53 86
e 53 91
e 53 97
e 53 101
e 53 116
e 53 119
e 53 121
e 53 126
e 53 128
e 53 129
e 53 131
e 53 132
e 53 139
e 53 147
e 53 148
e 53 150
e 53 157
e 53 159
e 53 176
e 53 179
e 53 180
e 53 187
e 53 188
e 54 57
e 54 59
e 54 69
e 54 73
e 54 75
e 54 85
e 54 90
e 54 91
e 54 93
e 54 94
e 54 103
e 54 105
e 54 106
e 54 108
e 54 115
e 54 124
e 54 125
e 54 128
e 54 129
e 54 134
e 54 143
e 54 146
e 54 155
e 54 157
e 54 166
e 54 170
e 54 179
e 54 183
e 54 186
e 54 191
e 54 194
e 54 195
e 54 196
e 54 200
e 55 65
e 55 68
e 55 69
e 55 71
e 55 81
e 55 85
e 55 86
e 55 88
e 55 91
e 55 94
e 55 96
e 55 97
e 55 100
e 55 102
e 55 111
e 55 117
e 55 118
e 55 129
e 55 133
e 55 137
e 55 142
e 55 150
e 55 153
e 55 154
e 55 159
e 55 167
e 55 171
e 55 178
e 55 186
e 55 188
e 56 57
e 56 63
e 56 67
e 56 78
e 56 88
e 56 91
e 56 93
e 56 95
e 56 97
e 56 103
e 56 111
e 56 112
e 56 121
e 56 123
e 56 128
e 56 130
e 56 131
e 56 136
e 56 138
e 56 139
e 56 143
e 56 144
e 56 149
e 56 152
e 56 154
e 56 158
e 56 164
e 56 168
e 56 171
e 56 173
e 57 59
e 57 69
e 57 73
e 57 74
e 57 85
e 57 92
e 57 93
e 57 95
e 57 96
e 57 108
e 57 112
e 57 129
e 57 136
e 57 143
e 57 145
e 57 147
e 57 158
e 57 161
e 57 163
e 57 174
e 57 180
e 57 182
e 57 183
e 57 187
e 57 191
e 57 193
e 57 194
e 57 200
e 58 80
e 58 87
e 58 95
e 58 97
e 58 99
e 58 102
e 58 109
e 58 115
e 58 116
e 58 122
e 58 135
e 58 147
e 58 161
e 58 165
e 58 169
e 58 174
e 58 176
e 58 181
e 58 193
e 58 194
e 58 196
e 59 63
e 59 64
e 59 98
e 59 101
e 59 107
e 59 108
e 59 115
e 59 128
e 59 130
e 59 134
e 59 138
e 59 147
e 59 153
e 59 158
e 59 159
e 59 162
e 59 166
e 59 175
e 59 176
e 59 185
e 59 188
e 59 196
e 59 199
e 60 63
e 60 66
e 60 77
e 60 82
e 60 96
e 60 98
e 60 101
e 60 102
e 60 104
e 60 106
e 60 109
e 60 116
e 60 119
e 60 127
e 60 145
e 60 149
e 60 150
e 60 163
e 60 171
e 60 175
e 60 181
e 60 182
e 60 183
e 60 185
e 60 186
e 60 189
e 60 194
e 61 74
e 61 82
e 61 89
e 61 93
e 61 96
e 61 97
e 61 98
e 61 103
e 61 113
e 61 117
e 61 124
e 61 128
e 61 129
e 61 131
e 61 133
e 61 147
e 61 150
e 61 151
e 61 157
e 61 159
e 61 162
e 61 164
e 61 173
e 61 178
e 61 185
e 61 186
e 61 195
e 61 197
e 61 199
e 61 200
e 62 63
e 62 65
e 62 71
e 62 72
e 62 79
e 62 80
e 62 84
e 62 86
e 62 91
e 62 93
e 62 117
e 62 120
e 62 122
e 62 123
e 62 126
e 62 128
e 62 131
e 62 148
e 62 156
e 62 158
e 62 160
e 62 166
e 62 167
e 62 169
e 62 186
e 62 191
e 62 200
e 63 65
e 63 66
e 63 67
e 63 78
e 63 86
e 63 89
e 63 92
e 63 94
e 63 95
e 63 109
e 63 110
e 63 111
e 63 112
e 63 116
e 63 118
e 63 120
e 63 121
e 63 123
e 63 137
e 63 147
e 63 151
e 63 157
e 63 160
e 63 163
e 63 168
e 63 171
e 63 177
e 63 178
e 63 179
e 63 180
e 63 187
e 63 196
e 64 66
e 64 70
e 64 75
e 64 80
e 64 84
e 64 86
e 64 90
e 64 93
e 64 97
e 64 99
e 64 100
e 64 109
e 64 111
e 64 114
e 64 116
e 64 120
e 64 123
e 64 133
e 64 135
e 64 139
e 64 145
e 64 154
e 64 155
e 64 173
e 64 174
e 64 179
e 64 181
e 64 184
e 64 190
e 64 194
e 64 195
e 64 196
e 64 198
e 65 73
e 65 74
e 65 78
e 65 79
e 65 85
e 65 92
e 65 99
e 65 106
e 65 113
e 65 118
e 65 122
e 65 125
e 65 133
e 65 134
e 65 141
e 65 144
e 65 150
e 65 151
e 65 153
e 65 157
e 65 158
e 65 172
e 65 179
e 65 180
e 65 186
e 65 191
e 65 197
e 65 199
e 66 67
e 66 75
e 66 77
e 66 78
e 66 79
e 66 80
e 66 82
e 66 89
e 66 90
e 66 91
e 66 99
e 66 104
e 66 108
e 66 110
e 66 124
e 66 129
e 66 145
e 66 149
e 66 157
e 66 158
e 66 160
e 66 167
e 66 168
e 66 173
e 66 179
e 66 182
e 66 185
e 66 197
e 66 198
e 67 70
e 67 71
e 67 75
e 67 76
e 67 77
e 67 81
e 67 83
e 67 87
e 67 93
e 67 110
e 67 119
e 67 123
e 67 126
e 67 132
e 67 137
e 67 139
e 67 140
e 67 156
e 67 157
e 67 160
e 67 161
e 67 165
e 67 168
e 67 175
e 67 177
e 67 178
e 67 179
e 67 185
e 67 194
e 67 199
e 68 69
e 68 72
e 68 74
e 68 80
e 68 81
e 68 83
e 68 91
e 68 98
e 68 99
e 68 102
e 68 104
e 68 108
e 68 110
e 68 123
e 68 130
e 68 137
e 68 143
e 68 144
e 68 147
e 68 154
e 68 163
e 68 164
e 68 166
e 68 176
e 68 182
e 68 185
e 68 187
e 68 192
e 68 196
e 68 197
e 68 200
e 69 85
e 69 89
e 69 97
e 69 101
e 69 103
e 69 104
e 69 109
e 69 110
e 69 115
e 69 118
e 69 135
e 69 139
e 69 144
e 69 148
e 69 159
e 69 171
e 69 177
e 69 181
e 69 185
e 69 187
e 69 192
e 69 193
e 69 199
e 69 200
e 70 73
e 70 77
e 70 80
e 70 83
e 70 93
e 70 95
e 70 97
e 70 104
e 70 108
e 70 117
e 70 124
e 70 127
e 70 130
e 70 137
e 70 142
e 70 144
e 70 155
e 70 158
e 70 166
e 70 171
e 70 172
e 70 174
e 70 175
e 70 176
e 70 180
e 70 190
e 70 192
e 70 193
e 70 195
e 70 196
e 71 72
e 71 74
e 71 84
e 71 94
e 71 96
e 71 97
e 71 107
e 71 111
e 71 113
e 71 119
e 71 123
e 71 131
e 71 136
e 71 138
e 71 145
e 71 158
e 71 161
e 71 164
e 71 168
e 71 171
e 71 183
e 71 186
e 71 198
e 72 76
e 72 104
e 72 110
e 72 111
e 72 113
e 72 117
e 72 118
e 72 128
e 72 138
e 72 161
e 72 163
e 72 165
e 72 167
e 72 168
e 72 169
e 72 171
e 72 172
e 72 175
e 72 178
e 72 181
e 72 197
e 72 198
e 73 78
e 73 85
e 73 91
e 73 103
e 73 105
e 73 118
e 73 132
e 73 133
e 73 135
e 73 137
e 73 149
e 73 151
e 73 154
e 73 156
e 73 163
e 73 179
e 73 182
e 73 187
e 73 196
e 73 198
e 74 80
e 74 81
e 74 84
e 74 86
e 74 87
e 74 97
e 74 99
e 74 101
e 74 107
e 74 108
e 74 115
e 74 122
e 74 123
e 74 136
e 74 142
e 74 145
e 74 149
e 74 154
e 74 155
e 74 157
e 74 164
e 74 165
e 74 173
e 74 178
e 74 186
e 74 190
e 74 195
e 74 196
e 74 200
e 75 77
e 75 80
e 75 81
e 75 82
e 75 83
e 75 93
e 75 98
e 75 99
e 75 108
e 75 123
e 75 124
e 75 133
e 75 135
e 75 137
e 75 139
e 75 140
e 75 147
e 75 153
e 75 162
e 75 174
e 75 176
e 75 180
e 75 185
e 75 198
e 76 84
e 76 88
e 76 95
e 76 96
e 76 98
e 76 99
e 76 100
e 76 111
e 76 126
e 76 140
e 76 154
e 76 158
e 76 166
e 76 167
e 76 176
e 76 177
e 76 178
e 76 179
e 76 180
e 76 181
e 76 191
e 77 85
e 77 88
e 77 91
e 77 93
e 77 96
e 77 98
e 77 99
e 77 100
e 77 101
e 77 107
e 77 109
e 77 111
e 77 115
e 77 116
e 77 122
e 77 139
e 77 142
e 77 145
e 77 151
e 77 152
e 77 158
e 77 161
e 77 166
e 77 170
e 77 172
e 77 187
e 77 191
e 77 197
e 77 199
e 78 82
e 78 83
e 78 85
e 78 86
e 78 93
e 78 106
e 78 108
e 78 118
e 78 122
e 78 126
e 78 127
e 78 128
e 78 130
e 78 131
e 78 135
e 78 141
e 78 149
e 78 153
e 78 158
e 78 160
e 78 161
e 78 164
e 78 166
e 78 175
e 78 189
e 78 193
e 78 195
e 79 80
e 79 88
e 79 98
e 79 99
e 79 112
e 79 113
e 79 121
e 79 134
e 79 137
e 79 145
e 79 146
e 79 149
e 79 151
e 79 154
e 79 160
e 79 163
e 79 164
e 79 167
e 79 168
e 79 172
e 79 174
e 79 177
e 79 179
e 79 180
e 79 187
e 79 193
e 79 194
e 79 195
e 79 197
e 79 199
e 79 200
e 80 82
e 80 83
e 80 85
e 80 90
e 80 108
e 80 110
e 80 114
e 80 116
e 80 120
e 80 129
e 80 131
e 80 133
e 80 147
e 80 148
e 80 150
e 80 157
e 80 160
e 80 161
e 80 163
e 80 171
e 80 172
e 80 178
e 80 184
e 80 185
e 81 92
e 81 94
e 81 104
e 81 111
e 81 118
e 81 123
e 81 129
e 81 143
e 81 154
e 81 159
e 81 160
e 81 162
e 81 172
e 81 184
e 81 190
e 81 191
e 81 196
e 81 197
e 82 84
e 82 87
e 82 95
e 82 102
e 82 103
e 82 113
e 82 116
e 82 120
e 82 121
e 82 127
e 82 130
e 82 132
e 82 136
e 82 139
e 82 146
e 82 160
e 82 162
e 82 176
e 82 179
e 82 187
e 82 197
e 83 95
e 83 96
e 83 103
e 83 109
e 83 121
e 83 123
e 83 126
e 83 138
e 83 144
e 83 148
e 83 151
e 83 165
e 83 166
e 83 169
e 83 171
e 83 179
e 83 183
e 83 195
e 83 200
e 84 86
e 84 92
e 84 95
e 84 96
e 84 109
e 84 112
e 84 119
e 84 124
e 84 125
e 84 126
e 84 130
e 84 134
e 84 143
e 84 145
e 84 152
e 84 157
e 84 159
e 84 162
e 84 166
e 84 172
e 84 173
e 84 176
e 84 178
e 84 187
e 84 200
e 85 95
e 85 96
e 85 97
e 85 99
e 85 104
e 85 109
e 85 111
e 85 112
e 85 130
e 85 134
e 85 136
e 85 140
e 85 145
e 85 158
e 85 161
e 85 164
e 85 170
e 85 175
e 85 183
e 85 186
e 85 190
e 86 87
e 86 89
e 86 93
e 86 98
e 86 105
e 86 106
e 86 116
e 86 124
e 86 125
e 86 132
e 86 134
e 86 138
e 86 155
e 86 162
e 86 173
e 86 191
e 86 193
e 86 194
e 86 195
e 86 197
e 86 198
e 87 88
e 87 93
e 87 101
e 87 103
e 87 113
e 87 114
e 87 119
e 87 121
e 87 123
e 87 126
e 87 133
e 87 136
e 87 152
e 87 158
e 87 175
e 87 177
e 87 180
e 87 186
e 87 193
e 87 194
e 88 89
e 88 100
e 88 105
e 88 107
e 88 114
e 88 116
e 88 119
e 88 121
e 88 139
e 88 158
e 88 162
e 88 174
e 88 175
e 88 178
e 88 189
e 88 197
e 89 96
e 89 98
e 89 100
e 89 103
e 89 105
e 89 106
e 89 107
e 89 111
e 89 113
e 89 117
e 89 120
e 89 124
e 89 140
e 89 148
e 89 151
e 89 157
e 89 165
e 89 166
e 89 176
e 89 182
e 89 185
e 89 188
e 89 195
e 89 196
e 89 197
e 90 95
e 90 102
e 90 113
e 90 116
e 90 121
e 90 133
e 90 138
e 90 139
e 90 142
e 90 153
e 90 165
e 90 167
e 90 168
e 90 170
e 90 174
e 90 178
e 90 179
e 90 181
e 90 182
e 90 184
e 90 186
e 90 193
e 91 92
e 91 93
e 91 97
e 91 98
e 91 102
e 91 107
e 91 108
e 91 109
e 91 110
e 91 112
e 91 114
e 91 119
e 91 135
e 91 137
e 91 146
e 91 147
e 91 160
e 91 170
e 91 171
e 91 173
e 91 174
e 91 191
e 91 193
e 92 109
e 92 118
e 92 125
e 92 133
e 92 135
e 92 142
e 92 158
e 92 167
e 92 171
e 92 172
e 92 175
e 92 176
e 92 179
e 92 182
e 92 184
e 92 186
e 92 192
e 92 195
e 93 100
e 93 105
e 93 116
e 93 119
e 93 131
e 93 133
e 93 134
e 93 135
e 93 139
e 93 156
e 93 160
e 93 161
e 93 165
e 93 170
e 93 177
e 93 191
e 93 196
e 93 200
e 94 95
e 94 97
e 94 99
e 94 113
e 94 114
e 94 127
e 94 128
e 94 131
e 94 136
e 94 138
e 94 139
e 94 142
e 94 145
e 94 161
e 94 167
e 94 172
e 94 178
e 94 187
e 94 188
e 94 193
e 95 98
e 95 99
e 95 100
e 95 106
e 95 111
e 95 114
e 95 115
e 95 129
e 95 133
e 95 134
e 95 139
e 95 152
e 95 158
e 95 159
e 95 163
e 95 167
e 95 173
e 95 183
e 95 184
e 95 186
e 95 189
e 95 200
e 96 98
e 96 99
e 96 102
e 96 105
e 96 107
e 96 117
e 96 118
e 96 121
e 96 126
e 96 131
e 96 140
e 96 148
e 96 152
e 96 159
e 96 162
e 96 163
e 96 166
e 96 171
e 96 174
e 96 183
e 96 193
e 97 102
e 97 103
e 97 106
e 97 108
e 97 121
e 97 122
e 97 125
e 97 127
e 97 128
e 97 130
e 97 136
e 97 139
e 97 141
e 97 144
e 97 145
e 97 149
e 97 154
e 97 155
e 97 161
e 97 178
e 97 179
e 97 183
e 97 186
e 97 187
e 97 196
e 97 199
e 97 200
e 98 102
e 98 110
e 98 112
e 98 126
e 98 131
e 98 132
e 98 137
e 98 142
e 98 150
e 98 159
e 98 164
e 98 165
e 98 173
e 98 177
e 98 190
e 99 105
e 99 115
e 99 138
e 99 142
e 99 145
e 99 146
e 99 147
e 99 148
e 99 158
e 99 161
e 99 166
e 99 171
e 99 174
e 99 177
e 99 182
e 99 184
e 99 197
e 100 108
e 100 110
e 100 115
e 100 119
e 100 121
e 100 122
e 100 126
e 100 147
e 100 148
e 100 149
e 100 152
e 100 153
e 100 156
e 100 157
e 100 159
e 100 164
e 100 174
e 100 176
e 100 177
e 100 178
e 100 180
e 100 182
e 100 188
e 100 196
e 100 197
e 101 105
e 101 106
e 101 115
e 101 116
e 101 117
e 101 121
e 101 126
e 101 135
e 101 139
e 101 140
e 101 151
e 101 152
e 101 155
e 101 160
e 101 161
e 101 165
e 101 173
e 101 174
e 101 177
e 101 178
e 101 181
e 101 185
e 101 187
e 101 192
e 101 193
e 101 195
e 102 114
e 102 121
e 102 122
e 102 136
e 102 139
e 102 141
e 102 142
e 102 144
e 102 149
e 102 151
e 102 152
e 102 159
e 102 174
e 102 175
e 102 177
e 102 181
e 102 183
e 102 185
e 102 188
e 102 191
e 102 197
e 103 114
e 103 128
e 103 130
e 103 132
e 103 134
e 103 137
e 103 139
e 103 143
e 103 145
e 103 147
e 103 162
e 103 164
e 103 168
e 103 171
e 103 180
e 103 181
e 103 187
e 103 189
e 103 196
e 103 198
e 104 105
e 104 109
e 104 110
e 104 116
e 104 117
e 104 119
e 104 120
e 104 129
e 104 140
e 104 144
e 104 147
e 104 152
e 104 159
e 104 166
e 104 171
e 104 172
e 104 181
e 104 191
e 104 195
e 105 110
e 105 116
e 105 119
e 105 126
e 105 128
e 105 134
e 105 154
e 105 155
e 105 158
e 105 161
e 105 172
e 105 175
e 105 177
e 105 188
e 105 196
e 106 108
e 106 122
e 106 146
e 106 159
e 106 162
e 106 163
e 106 165
e 106 168
e 106 170
e 106 174
e 106 175
e 106 188
e 106 190
e 106 198
e 107 113
e 107 114
e 107 120
e 107 121
e 107 126
e 107 129
e 107 146
e 107 154
e 107 157
e 107 158
e 107 160
e 107 161
e 107 163
e 107 164
e 107 166
e 107 169
e 107 171
e 107 172
e 107 173
e 107 177
e 107 183
e 107 184
e 107 189
e 107 198
e 108 110
e 108 122
e 108 123
e 108 130
e 108 134
e 108 147
e 108 155
e 108 158
e 108 164
e 108 165
e 108 182
e 108 184
e 108 192
e 108 197
e 109 117
e 109 119
e 109 123
e 109 125
e 109 126
e 109 130
e 109 137
e 109 139
e 109 143
e 109 144
e 109 148
e 109 159
e 109 172
e 109 176
e 109 179
e 109 182
e 109 185
e 109 187
e 109 188
e 110 112
e 110 121
e 110 129
e 110 138
e 110 140
e 110 150
e 110 153
e 110 167
e 110 170
e 110 172
e 110 181
e 110 184
e 110 185
e 110 186
e 110 187
e 110 195
e 110 196
e 110 199
e 111 118
e 111 121
e 111 124
e 111 125
e 111 130
e 111 132
e 111 141
e 111 145
e 111 153
e 111 159
e 111 162
e 111 170
e 111 172
e 111 176
e 111 181
e 111 193
e 111 198
e 111 200
e 112 113
e 112 134
e 112 137
e 112 138
e 112 141
e 112 142
e 112 159
e 112 161
e 112 162
e 112 166
e 112 171
e 112 173
e 112 174
e 112 184
e 112 187
e 112 189
e 112 193
e 112 197
e 112 198
e 113 137
e 113 138
e 113 140
e 113 142
e 113 143
e 113 144
e 113 151
e 113 154
e 113 164
e 113 175
e 113 178
e 113 183
e 113 184
e 113 188
e 113 189
e 113 195
e 113 198
e 113 199
e 114 117
e 114 124
e 114 128
e 114 129
e 114 130
e 114 138
e 114 144
e 114 147
e 114 149
e 114 152
e 114 156
e 114 159
e 114 160
e 114 167
e 114 175
e 114 179
e 114 184
e 114 187
e 114 193
e 114 194
e 114 196
e 115 125
e 115 129
e 115 131
e 115 132
e 115 133
e 115 138
e 115 146
e 115 148
e 115 149
e 115 151
e 115 153
e 115 156
e 115 162
e 115 165
e 115 171
e 115 172
e 115 181
e 115 187
e 115 195
e 115 196
e 116 117
e 116 121
e 116 123
e 116 126
e 116 131
e 116 132
e 116 152
e 116 160
e 116 173
e 116 176
e 116 178
e 116 185
e 116 193
e 116 194
e 116 198
e 117 125
e 117 126
e 117 127
e 117 130
e 117 137
e 117 138
e 117 142
e 117 146
e 117 150
e 117 151
e 117 157
e 117 163
e 117 166
e 117 171
e 117 181
e 117 186
e 117 189
e 118 126
e 118 134
e 118 139
e 118 141
e 118 143
e 118 146
e 118 150
e 118 151
e 118 154
e 118 160
e 118 162
e 118 166
e 118 167
e 118 172
e 118 177
e 118 178
e 118 180
e 118 185
e 119 120
e 119 123
e 119 143
e 119 144
e 119 147
e 119 149
e 119 152
e 119 156
e 119 161
e 119 167
e 119 175
e 119 184
e 119 190
e 119 193
e 119 196
e 119 197
e 119 199
e 120 124
e 120 134
e 120 136
e 120 141
e 120 145
e 120 155
e 120 163
e 120 164
e 120 171
e 120 177
e 120 180
e 120 184
e 120 188
e 120 189
e 120 191
e 120 192
e 120 193
e 120 198
e 121 122
e 121 123
e 121 128
e 121 129
e 121 135
e 121 168
e 121 169
e 121 175
e 121 180
e 121 189
e 122 125
e 122 129
e 122 132
e 122 139
e 122 145
e 122 150
e 122 153
e 122 156
e 122 162
e 122 163
e 122 164
e 122 175
e 122 191
e 123 124
e 123 125
e 123 127
e 123 129
e 123 138
e 123 150
e 123 152
e 123 153
e 123 155
e 123 158
e 123 163
e 123 172
e 123 176
e 123 185
e 123 188
e 123 189
e 123 191
e 123 193
e 123 197
e 124 126
e 124 129
e 124 131
e 124 134
e 124 136
e 124 150
e 124 158
e 124 166
e 124 167
e 124 169
e 124 173
e 124 180
e 124 192
e 124 196
e 124 197
e 125 126
e 125 129
e 125 133
e 125 135
e 125 148
e 125 149
e 125 163
e 125 165
e 125 169
e 125 174
e 125 178
e 125 186
e 125 187
e 125 188
e 125 191
e 125 193
e 125 196
e 126 136
e 126 140
e 126 145
e 126 152
e 126 158
e 126 161
e 126 162
e 126 166
e 126 168
e 126 174
e 126 178
e 126 180
e 126 183
e 126 186
e 126 187
e 126 192
e 126 193
e 126 194
e 126 199
e 127 141
e 127 147
e 127 148
e 127 154
e 127 155
e 127 157
e 127 165
e 127 168
e 127 169
e 127 175
e 127 181
e 127 197
e 128 131
e 128 133
e 128 134
e 128 137
e 128 138
e 128 142
e 128 150
e 128 154
e 128 155
e 128 161
e 128 166
e 128 168
e 128 180
e 128 183
e 128 184
e 128 192
e 128 196
e 129 149
e 129 164
e 129 166
e 129 167
e 129 169
e 129 171
e 129 179
e 129 182
e 129 183
e 129 185
e 129 191
e 129 196
e 129 198
e 130 133
e 130 135
e 130 140
e 130 141
e 130 146
e 130 147
e 130 148
e 130 152
e 130 155
e 130 157
e 130 163
e 130 167
e 130 171
e 130 172
e 130 181
e 130 186
e 130 188
e 130 189
e 130 194
e 130 195
e 130 197
e 131 145
e 131 146
e 131 148
e 131 149
e 131 150
e 131 156
e 131 165
e 131 168
e 131 172
e 131 174
e 131 175
e 131 179
e 131 186
e 132 133
e 132 145
e 132 149
e 132 156
e 132 159
e 132 161
e 132 162
e 132 184
e 132 189
e 132 191
e 132 192
e 132 194
e 132 199
e 132 200
e 133 135
e 133 142
e 133 146
e 133 148
e 133 153
e 133 159
e 133 164
e 133 171
e 133 178
e 133 180
e 133 183
e 133 186
e 133 197
e 133 199
e 133 200
e 134 142
e 134 152
e 134 159
e 134 163
e 134 189
e 135 142
e 135 143
e 135 145
e 135 147
e 135 167
e 135 172
e 135 173
e 135 179
e 135 180
e 135 188
e 135 191
e 135 196
e 135 200
e 136 150
e 136 157
e 136 158
e 136 159
e 136 161
e 136 162
e 136 170
e 136 180
e 137 138
e 137 145
e 137 153
e 137 163
e 137 164
e 137 166
e 137 168
e 137 170
e 137 173
e 137 177
e 137 179
e 137 181
e 137 182
e 137 194
e 137 195
e 137 196
e 138 140
e 138 149
e 138 153
e 138 163
e 138 166
e 138 167
e 138 169
e 138 180
e 138 187
e 138 195
e 138 196
e 139 160
e 139 162
e 139 165
e 139 166
e 139 167
e 139 171
e 139 186
e 139 187
e 139 188
e 139 192
e 139 197
e 140 141
e 140 145
e 140 147
e 140 151
e 140 156
e 140 161
e 140 167
e 140 177
e 140 181
e 140 185
e 140 190
e 140 193
e 140 194
e 140 196
e 140 197
e 141 145
e 141 147
e 141 149
e 141 159
e 141 163
e 141 171
e 141 180
e 141 191
e 141 196
e 142 161
e 142 162
e 142 172
e 142 173
e 142 187
e 142 195
e 142 196
e 143 145
e 143 153
e 143 156
e 143 160
e 143 161
e 143 173
e 143 182
e 143 185
e 143 189
e 143 193
e 143 196
e 143 198
e 144 146
e 144 147
e 144 150
e 144 160
e 144 163
e 144 174
e 144 176
e 144 181
e 144 188
e 144 196
e 144 197
e 145 150
e 145 151
e 145 152
e 145 153
e 145 159
e 145 163
e 145 166
e 145 171
e 145 173
e 145 183
e 145 191
e 145 196
e 145 197
e 145 200
e 146 147
e 146 148
e 146 156
e 146 168
e 146 169
e 146 175
e 146 178
e 146 195
e 146 199
e 147 159
e 147 168
e 147 178
e 147 181
e 147 185
e 147 186
e 147 191
e 147 194
e 148 151
e 148 156
e 148 157
e 148 158
e 148 161
e 148 163
e 148 164
e 148 170
e 148 171
e 148 175
e 148 189
e 148 193
e 148 196
e 148 197
e 148 200
e 149 158
e 149 159
e 149 160
e 149 162
e 149 174
e 149 175
e 149 178
e 149 194
e 149 195
e 150 151
e 150 162
e 150 165
e 150 166
e 150 168
e 150 180
e 150 186
e 150 195
e 151 155
e 151 163
e 151 170
e 151 181
e 151 186
e 151 191
e 151 194
e 151 196
e 151 199
e 152 160
e 152 176
e 152 177
e 152 181
e 152 183
e 152 187
e 152 190
e 152 197
e 153 163
e 153 168
e 153 172
e 153 181
e 153 184
e 153 185
e 153 188
e 153 197
e 153 199
e 154 158
e 154 162
e 154 165
e 154 178
e 154 183
e 154 191
e 154 193
e 154 196
e 155 163
e 155 171
e 155 180
e 155 187
e 155 190
e 155 191
e 155 192
e 156 161
e 156 170
e 156 171
e 156 173
e 156 174
e 156 182
e 156 185
e 156 188
e 156 189
e 157 158
e 157 166
e 157 173
e 157 174
e 157 180
e 157 181
e 157 188
e 157 193
e 157 195
e 158 159
e 158 162
e 158 163
e 158 168
e 158 175
e 158 179
e 158 181
e 158 184
e 158 185
e 158 190
e 158 197
e 159 163
e 159 166
e 159 167
e 159 174
e 159 176
e 159 181
e 159 188
e 159 191
e 159 197
e 159 200
e 160 173
e 160 174
e 160 182
e 160 187
e 160 189
e 160 191
e 160 193
e 160 196
e 160 199
e 161 176
e 161 179
e 161 188
e 161 199
e 162 164
e 162 176
e 162 188
e 162 191
e 162 193
e 162 197
e 162 198
e 162 200
e 163 180
e 164 166
e 164 170
e 164 172
e 164 173
e 164 177
e 164 182
e 164 188
e 164 196
e 164 197
e 164 198
e 164 200
e 165 166
e 165 168
e 165 177
e 165 188
e 165 189
e 165 196
e 165 197
e 165 198
e 166 171
e 166 175
e 166 178
e 166 187
e 166 188
e 166 190
e 166 193
e 166 195
e 166 196
e 166 197
e 166 200
e 167 174
e 167 176
e 167 177
e 167 200
e 168 172
e 168 176
e 168 179
e 168 185
e 168 186
e 168 194
e 168 197
e 169 172
e 169 178
e 169 179
e 169 185
e 170 174
e 170 178
e 170 179
e 170 181
e 170 183
e 170 187
e 170 195
e 170 196
e 171 173
e 171 181
e 171 184
e 171 188
e 171 189
e 171 190
e 171 197
e 171 200
e 172 182
e 172 186
e 172 187
e 172 189
e 172 195
e 172 199
e 172 200
e 173 174
e 173 179
e 173 180
e 173 182
e 174 182
e 174 184
e 174 195
e 174 197
e 175 180
e 175 183
e 175 193
e 176 177
e 176 179
e 176 180
e 176 184
e 176 189
e 176 190
e 176 191
e 176 194
e 176 196
e 176 198
e 176 200
e 177 184
e 177 197
e 178 180
e 178 181
e 178 188
e 178 190
e 178 199
e 178 200
e 179 188
e 179 190
e 179 193
e 179 198
e 180 182
e 180 188
e 180 192
e 180 194
e 180 199
e 181 182
e 181 186
e 181 193
e 181 196
e 182 184
e 182 198
e 183 194
e 183 196
e 183 198
e 184 185
e 184 187
e 184 192
e 185 187
e 185 188
e 186 187
e 186 188
e 186 192
e 186 200
e 187 192
e 187 197
e 187 199
e 188 190
e 188 193
e 189 193
e 189 199
e 190 192
e 190 195
e 191 193
e 191 196
e 191 198
e 192 193
e 192 197
e 192 200
e 193 198
e 194 200
e 195 197